161
0 53 23 100 77 151 142 107 140 99 
12 116 24 37 141 14 21 144 108 65 
110 4 44 134 84 155 57 17 128 10 
89 19 123 76 39 5 9 36 143 156 
97 69 1 75 34 112 90 103 150 139 
64 114 96 66 38 45 111 62 47 124 
157 86 138 33 74 80 26 56 149 88 
137 109 158 50 73 27 132 154 67 147 
119 18 79 126 70 2 160 46 98 35 
121 83 94 71 52 153 105 104 68 159 
135 40 58 25 49 59 54 29 42 11 
13 31 81 8 30 93 82 28 48 61 
113 127 63 7 131 115 32 91 3 146 
43 95 60 120 133 106 20 152 87 55 
41 125 101 122 15 6 118 129 16 51 
145 136 85 102 92 130 117 78 72 148 
22 
